69
6
0 7 8 12 13 14 18 19 20 21 23 24 27 29 31 32 34 36 38 41 43 44 45 46 47 48 56 57 58 60 61 62 63 65 66
1 7 8 9 12 13 14 15 16 18 19 20 22 24 25 26 31 32 33 34 35 38 39 40 41 44 47 48 51 52 53 54 57 59 60 63 66 67 68
2 6 7 8 10 11 12 13 14 15 16 19 23 24 26 28 34 36 38 41 42 43 44 48 50 51 52 56 58 59 60 62 66 67 68
3 8 9 11 14 15 16 17 18 20 23 27 30 31 32 33 34 35 37 39 40 41 42 44 52 53 55 56 57 58 60 61 62 64 65
4 7 9 10 11 14 15 19 23 26 27 28 30 33 45 48 49 50 53 54 60 61 65 67
5 10 15 17 30 36 54 64
